# Objective value = 5533.67999999998
I_0_0 1230
I_0_1 1.3529999999999986e+03
I_0_2 1.5819999999999845e+03
I_0_3 1.7089999999999845e+03
I_0_4 1.5160000000000070e+03
I_0_5 1.4469999999999961e+03
I_0_6 1.9219999999999961e+03
I_1_0 126
I_1_1 63
I_1_2 126
I_1_3 63
I_1_4 0
I_1_5 126
I_1_6 6.2999999999999986e+01
I_2_0 61
I_2_1 61
I_2_2 0
I_2_3 6.0999999999999993e+01
I_2_4 0
I_2_5 61
I_2_6 0
I_3_0 22
I_3_1 22
I_3_2 11
I_3_3 0
I_3_4 22
I_3_5 11
I_3_6 0
I_4_0 110
I_4_1 1.1000000000000088e+02
I_4_2 5.4999999999999119e+01
I_4_3 -8.8107299234252423e-13
I_4_4 110
I_4_5 5.5000000000000007e+01
I_4_6 0
I_5_0 14
I_5_1 14
I_5_2 0
I_5_3 14
I_5_4 1.4000000000000002e+01
I_5_5 14
I_5_6 0
I_6_0 99
I_6_1 9.9000000000000028e+01
I_6_2 0
I_6_3 9.9000000000000014e+01
I_6_4 0
I_6_5 9.9000000000000014e+01
I_6_6 0
I_7_0 78
I_7_1 39
I_7_2 7.7999999999999972e+01
I_7_3 3.8999999999999972e+01
I_7_4 78
I_7_5 39
I_7_6 0
I_8_0 21
I_8_1 0
I_8_2 21
I_8_3 0
I_8_4 21
I_8_5 21
I_8_6 0
I_9_0 64
I_9_1 6.4000000000000512e+01
I_9_2 3.2000000000003617e+01
I_9_3 3.61666252501891e-12
I_9_4 6.3999999999992767e+01
I_9_5 3.2000000000003617e+01
I_9_6 3.61666252501891e-12
I_10_0 160
I_10_1 160
I_10_2 8.0000000000012534e+01
I_10_3 1.2529704885363627e-11
I_10_4 160
I_10_5 80
I_10_6 0
q_1_0_0 0
q_1_0_1 1.2599999999998899e+02
q_1_0_2 0
q_1_0_3 0
q_1_0_4 0
q_1_0_5 0
q_1_1_0 0
q_1_1_1 1.1065497278413244e-11
q_1_1_2 0
q_1_1_3 0
q_1_1_4 189
q_1_1_5 0
q_2_0_0 61
q_2_0_1 0
q_2_0_2 122
q_2_0_3 0
q_2_0_4 122
q_2_0_5 0
q_2_1_0 0
q_2_1_1 0
q_2_1_2 0
q_2_1_3 0
q_2_1_4 0
q_2_1_5 0
q_3_0_0 11
q_3_0_1 0
q_3_0_2 0
q_3_0_3 33
q_3_0_4 0
q_3_0_5 0
q_3_1_0 0
q_3_1_1 0
q_3_1_2 0
q_3_1_3 0
q_3_1_4 0
q_3_1_5 0
q_4_0_0 5.5000000000000881e+01
q_4_0_1 0
q_4_0_2 0
q_4_0_3 1.6500000000000088e+02
q_4_0_4 0
q_4_0_5 0
q_4_1_0 0
q_4_1_1 -1.7587547505778659e-12
q_4_1_2 0
q_4_1_3 0
q_4_1_4 0
q_4_1_5 0
q_5_0_0 14
q_5_0_1 0
q_5_0_2 28
q_5_0_3 1.4000000000000002e+01
q_5_0_4 1.3999999999999998e+01
q_5_0_5 0
q_5_1_0 0
q_5_1_1 0
q_5_1_2 0
q_5_1_3 0
q_5_1_4 0
q_5_1_5 0
q_6_0_0 9.9000000000000028e+01
q_6_0_1 0
q_6_0_2 198
q_6_0_3 0
q_6_0_4 198
q_6_0_5 0
q_6_1_0 0
q_6_1_1 0
q_6_1_2 0
q_6_1_3 0
q_6_1_4 0
q_6_1_5 0
q_7_0_0 0
q_7_0_1 78
q_7_0_2 0
q_7_0_3 78
q_7_0_4 0
q_7_0_5 0
q_7_1_0 0
q_7_1_1 0
q_7_1_2 0
q_7_1_3 0
q_7_1_4 0
q_7_1_5 0
q_8_0_0 0
q_8_0_1 42
q_8_0_2 0
q_8_0_3 42
q_8_0_4 2.0999999999999950e+01
q_8_0_5 0
q_8_1_0 0
q_8_1_1 0
q_8_1_2 0
q_8_1_3 0
q_8_1_4 0
q_8_1_5 0
q_9_0_0 3.2000000000000512e+01
q_9_0_1 0
q_9_0_2 0
q_9_0_3 0
q_9_0_4 1.0849987575056730e-11
q_9_0_5 0
q_9_1_0 0
q_9_1_1 3.1080525155778350e-12
q_9_1_2 0
q_9_1_3 9.5999999999989143e+01
q_9_1_4 0
q_9_1_5 0
q_10_0_0 80
q_10_0_1 1.2533973858808167e-11
q_10_0_2 0
q_10_0_3 0
q_10_0_4 0
q_10_0_5 0
q_10_1_0 0
q_10_1_1 0
q_10_1_2 0
q_10_1_3 2.3999999999998747e+02
q_10_1_4 0
q_10_1_5 0
y_0_0_0 1
y_0_0_1 1
y_0_0_2 1
y_0_0_3 1
y_0_0_4 1
y_0_0_5 0
y_0_1_0 0
y_0_1_1 0
y_0_1_2 0
y_0_1_3 9.9999999999994782e-01
y_0_1_4 1
y_0_1_5 0
y_1_0_0 0
y_1_0_1 9.9999999999991263e-01
y_1_0_2 0
y_1_0_3 0
y_1_0_4 0
y_1_0_5 0
y_1_1_0 0
y_1_1_1 8.7821406971533687e-14
y_1_1_2 0
y_1_1_3 0
y_1_1_4 1
y_1_1_5 0
y_2_0_0 1
y_2_0_1 0
y_2_0_2 1
y_2_0_3 0
y_2_0_4 1
y_2_0_5 0
y_2_1_0 0
y_2_1_1 0
y_2_1_2 0
y_2_1_3 0
y_2_1_4 0
y_2_1_5 0
y_3_0_0 1
y_3_0_1 0
y_3_0_2 0
y_3_0_3 1
y_3_0_4 0
y_3_0_5 0
y_3_1_0 0
y_3_1_1 0
y_3_1_2 0
y_3_1_3 0
y_3_1_4 0
y_3_1_5 0
y_4_0_0 1.0000000000000160e+00
y_4_0_1 0
y_4_0_2 0
y_4_0_3 1
y_4_0_4 0
y_4_0_5 0
y_4_1_0 0
y_4_1_1 -1.5979731855722146e-14
y_4_1_2 0
y_4_1_3 0
y_4_1_4 0
y_4_1_5 0
y_5_0_0 1
y_5_0_1 0
y_5_0_2 1
y_5_0_3 1
y_5_0_4 1
y_5_0_5 0
y_5_1_0 0
y_5_1_1 0
y_5_1_2 0
y_5_1_3 0
y_5_1_4 0
y_5_1_5 0
y_6_0_0 1.0000000000000002e+00
y_6_0_1 0
y_6_0_2 1
y_6_0_3 0
y_6_0_4 1
y_6_0_5 0
y_6_1_0 0
y_6_1_1 0
y_6_1_2 0
y_6_1_3 0
y_6_1_4 0
y_6_1_5 0
y_7_0_0 0
y_7_0_1 1
y_7_0_2 0
y_7_0_3 1
y_7_0_4 0
y_7_0_5 0
y_7_1_0 0
y_7_1_1 0
y_7_1_2 0
y_7_1_3 0
y_7_1_4 0
y_7_1_5 0
y_8_0_0 0
y_8_0_1 1
y_8_0_2 0
y_8_0_3 1
y_8_0_4 1
y_8_0_5 0
y_8_1_0 0
y_8_1_1 0
y_8_1_2 0
y_8_1_3 0
y_8_1_4 0
y_8_1_5 0
y_9_0_0 1.0000000000000160e+00
y_9_0_1 0
y_9_0_2 0
y_9_0_3 0
y_9_0_4 1.1302070390684094e-13
y_9_0_5 0
y_9_1_0 0
y_9_1_1 4.8563320555903671e-14
y_9_1_2 0
y_9_1_3 0.999999999999887
y_9_1_4 0
y_9_1_5 0
y_10_0_0 1
y_10_0_1 8.7419926370310578e-14
y_10_0_2 0
y_10_0_3 0
y_10_0_4 0
y_10_0_5 0
y_10_1_0 0
y_10_1_1 0
y_10_1_2 0
y_10_1_3 9.9999999999994782e-01
y_10_1_4 0
y_10_1_5 0
x_0_1_0_0 0
x_0_1_0_1 9.9999999999982525e-01
x_0_1_0_2 0
x_0_1_0_3 0
x_0_1_0_4 0
x_0_1_0_5 0
x_0_1_1_0 0
x_0_1_1_1 1.7564281394306737e-13
x_0_1_1_2 0
x_0_1_1_3 0
x_0_1_1_4 2
x_0_1_1_5 0
x_0_2_0_0 0
x_0_2_0_1 0
x_0_2_0_2 1
x_0_2_0_3 0
x_0_2_0_4 0
x_0_2_0_5 0
x_0_2_1_0 0
x_0_2_1_1 0
x_0_2_1_2 0
x_0_2_1_3 0
x_0_2_1_4 0
x_0_2_1_5 0
x_0_3_0_0 0
x_0_3_0_1 0
x_0_3_0_2 0
x_0_3_0_3 0
x_0_3_0_4 0
x_0_3_0_5 0
x_0_3_1_0 0
x_0_3_1_1 0
x_0_3_1_2 0
x_0_3_1_3 0
x_0_3_1_4 0
x_0_3_1_5 0
x_0_4_0_0 0
x_0_4_0_1 0
x_0_4_0_2 0
x_0_4_0_3 1
x_0_4_0_4 0
x_0_4_0_5 0
x_0_4_1_0 0
x_0_4_1_1 0
x_0_4_1_2 0
x_0_4_1_3 0
x_0_4_1_4 0
x_0_4_1_5 0
x_0_5_0_0 1.0000000000000160e+00
x_0_5_0_1 0
x_0_5_0_2 1
x_0_5_0_3 0
x_0_5_0_4 9.9999999999999978e-01
x_0_5_0_5 0
x_0_5_1_0 0
x_0_5_1_1 0
x_0_5_1_2 0
x_0_5_1_3 0
x_0_5_1_4 0
x_0_5_1_5 0
x_0_6_0_0 0
x_0_6_0_1 0
x_0_6_0_2 0
x_0_6_0_3 0
x_0_6_0_4 0
x_0_6_0_5 0
x_0_6_1_0 0
x_0_6_1_1 0
x_0_6_1_2 0
x_0_6_1_3 0
x_0_6_1_4 0
x_0_6_1_5 0
x_0_7_0_0 0
x_0_7_0_1 0
x_0_7_0_2 0
x_0_7_0_3 0
x_0_7_0_4 0
x_0_7_0_5 0
x_0_7_1_0 0
x_0_7_1_1 0
x_0_7_1_2 0
x_0_7_1_3 0
x_0_7_1_4 0
x_0_7_1_5 0
x_0_8_0_0 0
x_0_8_0_1 1
x_0_8_0_2 0
x_0_8_0_3 1
x_0_8_0_4 9.9999999999999978e-01
x_0_8_0_5 0
x_0_8_1_0 0
x_0_8_1_1 0
x_0_8_1_2 0
x_0_8_1_3 0
x_0_8_1_4 0
x_0_8_1_5 0
x_0_9_0_0 0
x_0_9_0_1 0
x_0_9_0_2 0
x_0_9_0_3 0
x_0_9_0_4 0
x_0_9_0_5 0
x_0_9_1_0 0
x_0_9_1_1 0
x_0_9_1_2 0
x_0_9_1_3 0.999999999999887
x_0_9_1_4 0
x_0_9_1_5 0
x_0_10_0_0 0.999999999999984
x_0_10_0_1 1.7474910407599964e-13
x_0_10_0_2 0
x_0_10_0_3 0
x_0_10_0_4 0
x_0_10_0_5 0
x_0_10_1_0 0
x_0_10_1_1 -1.7564281394306737e-13
x_0_10_1_2 0
x_0_10_1_3 1.0000000000000087e+00
x_0_10_1_4 0
x_0_10_1_5 0
x_1_2_0_0 0
x_1_2_0_1 0
x_1_2_0_2 0
x_1_2_0_3 0
x_1_2_0_4 0
x_1_2_0_5 0
x_1_2_1_0 0
x_1_2_1_1 0
x_1_2_1_2 0
x_1_2_1_3 0
x_1_2_1_4 0
x_1_2_1_5 0
x_1_3_0_0 0
x_1_3_0_1 0
x_1_3_0_2 0
x_1_3_0_3 0
x_1_3_0_4 0
x_1_3_0_5 0
x_1_3_1_0 0
x_1_3_1_1 0
x_1_3_1_2 0
x_1_3_1_3 0
x_1_3_1_4 0
x_1_3_1_5 0
x_1_4_0_0 0
x_1_4_0_1 0
x_1_4_0_2 0
x_1_4_0_3 0
x_1_4_0_4 0
x_1_4_0_5 0
x_1_4_1_0 0
x_1_4_1_1 0
x_1_4_1_2 0
x_1_4_1_3 0
x_1_4_1_4 0
x_1_4_1_5 0
x_1_5_0_0 0
x_1_5_0_1 0
x_1_5_0_2 0
x_1_5_0_3 0
x_1_5_0_4 0
x_1_5_0_5 0
x_1_5_1_0 0
x_1_5_1_1 0
x_1_5_1_2 0
x_1_5_1_3 0
x_1_5_1_4 0
x_1_5_1_5 0
x_1_6_0_0 0
x_1_6_0_1 0
x_1_6_0_2 0
x_1_6_0_3 0
x_1_6_0_4 0
x_1_6_0_5 0
x_1_6_1_0 0
x_1_6_1_1 0
x_1_6_1_2 0
x_1_6_1_3 0
x_1_6_1_4 0
x_1_6_1_5 0
x_1_7_0_0 0
x_1_7_0_1 1
x_1_7_0_2 0
x_1_7_0_3 0
x_1_7_0_4 0
x_1_7_0_5 0
x_1_7_1_0 0
x_1_7_1_1 0
x_1_7_1_2 0
x_1_7_1_3 0
x_1_7_1_4 0
x_1_7_1_5 0
x_1_8_0_0 0
x_1_8_0_1 0
x_1_8_0_2 0
x_1_8_0_3 0
x_1_8_0_4 0
x_1_8_0_5 0
x_1_8_1_0 0
x_1_8_1_1 0
x_1_8_1_2 0
x_1_8_1_3 0
x_1_8_1_4 0
x_1_8_1_5 0
x_1_9_0_0 0
x_1_9_0_1 0
x_1_9_0_2 0
x_1_9_0_3 0
x_1_9_0_4 0
x_1_9_0_5 0
x_1_9_1_0 0
x_1_9_1_1 0
x_1_9_1_2 0
x_1_9_1_3 0
x_1_9_1_4 0
x_1_9_1_5 0
x_1_10_0_0 0
x_1_10_0_1 0
x_1_10_0_2 0
x_1_10_0_3 0
x_1_10_0_4 0
x_1_10_0_5 0
x_1_10_1_0 0
x_1_10_1_1 0
x_1_10_1_2 0
x_1_10_1_3 0
x_1_10_1_4 0
x_1_10_1_5 0
x_2_3_0_0 0
x_2_3_0_1 0
x_2_3_0_2 0
x_2_3_0_3 0
x_2_3_0_4 0
x_2_3_0_5 0
x_2_3_1_0 0
x_2_3_1_1 0
x_2_3_1_2 0
x_2_3_1_3 0
x_2_3_1_4 0
x_2_3_1_5 0
x_2_4_0_0 0
x_2_4_0_1 0
x_2_4_0_2 0
x_2_4_0_3 0
x_2_4_0_4 0
x_2_4_0_5 0
x_2_4_1_0 0
x_2_4_1_1 0
x_2_4_1_2 0
x_2_4_1_3 0
x_2_4_1_4 0
x_2_4_1_5 0
x_2_5_0_0 1
x_2_5_0_1 0
x_2_5_0_2 0
x_2_5_0_3 0
x_2_5_0_4 0
x_2_5_0_5 0
x_2_5_1_0 0
x_2_5_1_1 0
x_2_5_1_2 0
x_2_5_1_3 0
x_2_5_1_4 0
x_2_5_1_5 0
x_2_6_0_0 1
x_2_6_0_1 0
x_2_6_0_2 1
x_2_6_0_3 0
x_2_6_0_4 9.9999999999999978e-01
x_2_6_0_5 0
x_2_6_1_0 0
x_2_6_1_1 0
x_2_6_1_2 0
x_2_6_1_3 0
x_2_6_1_4 0
x_2_6_1_5 0
x_2_7_0_0 0
x_2_7_0_1 0
x_2_7_0_2 0
x_2_7_0_3 0
x_2_7_0_4 0
x_2_7_0_5 0
x_2_7_1_0 0
x_2_7_1_1 0
x_2_7_1_2 0
x_2_7_1_3 0
x_2_7_1_4 0
x_2_7_1_5 0
x_2_8_0_0 0
x_2_8_0_1 0
x_2_8_0_2 0
x_2_8_0_3 0
x_2_8_0_4 1.0000000000000002e+00
x_2_8_0_5 0
x_2_8_1_0 0
x_2_8_1_1 0
x_2_8_1_2 0
x_2_8_1_3 0
x_2_8_1_4 0
x_2_8_1_5 0
x_2_9_0_0 0
x_2_9_0_1 0
x_2_9_0_2 0
x_2_9_0_3 0
x_2_9_0_4 0
x_2_9_0_5 0
x_2_9_1_0 0
x_2_9_1_1 0
x_2_9_1_2 0
x_2_9_1_3 0
x_2_9_1_4 0
x_2_9_1_5 0
x_2_10_0_0 0
x_2_10_0_1 0
x_2_10_0_2 0
x_2_10_0_3 0
x_2_10_0_4 0
x_2_10_0_5 0
x_2_10_1_0 0
x_2_10_1_1 0
x_2_10_1_2 0
x_2_10_1_3 0
x_2_10_1_4 0
x_2_10_1_5 0
x_3_4_0_0 1
x_3_4_0_1 0
x_3_4_0_2 0
x_3_4_0_3 1
x_3_4_0_4 0
x_3_4_0_5 0
x_3_4_1_0 0
x_3_4_1_1 0
x_3_4_1_2 0
x_3_4_1_3 0
x_3_4_1_4 0
x_3_4_1_5 0
x_3_5_0_0 0
x_3_5_0_1 0
x_3_5_0_2 0
x_3_5_0_3 1
x_3_5_0_4 0
x_3_5_0_5 0
x_3_5_1_0 0
x_3_5_1_1 0
x_3_5_1_2 0
x_3_5_1_3 0
x_3_5_1_4 0
x_3_5_1_5 0
x_3_6_0_0 1
x_3_6_0_1 0
x_3_6_0_2 0
x_3_6_0_3 0
x_3_6_0_4 0
x_3_6_0_5 0
x_3_6_1_0 0
x_3_6_1_1 0
x_3_6_1_2 0
x_3_6_1_3 0
x_3_6_1_4 0
x_3_6_1_5 0
x_3_7_0_0 0
x_3_7_0_1 0
x_3_7_0_2 0
x_3_7_0_3 0
x_3_7_0_4 0
x_3_7_0_5 0
x_3_7_1_0 0
x_3_7_1_1 0
x_3_7_1_2 0
x_3_7_1_3 0
x_3_7_1_4 0
x_3_7_1_5 0
x_3_8_0_0 0
x_3_8_0_1 0
x_3_8_0_2 0
x_3_8_0_3 0
x_3_8_0_4 0
x_3_8_0_5 0
x_3_8_1_0 0
x_3_8_1_1 0
x_3_8_1_2 0
x_3_8_1_3 0
x_3_8_1_4 0
x_3_8_1_5 0
x_3_9_0_0 0
x_3_9_0_1 0
x_3_9_0_2 0
x_3_9_0_3 0
x_3_9_0_4 0
x_3_9_0_5 0
x_3_9_1_0 0
x_3_9_1_1 0
x_3_9_1_2 0
x_3_9_1_3 0
x_3_9_1_4 0
x_3_9_1_5 0
x_3_10_0_0 0
x_3_10_0_1 0
x_3_10_0_2 0
x_3_10_0_3 0
x_3_10_0_4 0
x_3_10_0_5 0
x_3_10_1_0 0
x_3_10_1_1 0
x_3_10_1_2 0
x_3_10_1_3 0
x_3_10_1_4 0
x_3_10_1_5 0
x_4_5_0_0 0
x_4_5_0_1 0
x_4_5_0_2 0
x_4_5_0_3 0
x_4_5_0_4 0
x_4_5_0_5 0
x_4_5_1_0 0
x_4_5_1_1 0
x_4_5_1_2 0
x_4_5_1_3 0
x_4_5_1_4 0
x_4_5_1_5 0
x_4_6_0_0 0
x_4_6_0_1 0
x_4_6_0_2 0
x_4_6_0_3 0
x_4_6_0_4 0
x_4_6_0_5 0
x_4_6_1_0 0
x_4_6_1_1 0
x_4_6_1_2 0
x_4_6_1_3 0
x_4_6_1_4 0
x_4_6_1_5 0
x_4_7_0_0 0
x_4_7_0_1 0
x_4_7_0_2 0
x_4_7_0_3 0
x_4_7_0_4 0
x_4_7_0_5 0
x_4_7_1_0 0
x_4_7_1_1 0
x_4_7_1_2 0
x_4_7_1_3 0
x_4_7_1_4 0
x_4_7_1_5 0
x_4_8_0_0 0
x_4_8_0_1 0
x_4_8_0_2 0
x_4_8_0_3 0
x_4_8_0_4 0
x_4_8_0_5 0
x_4_8_1_0 0
x_4_8_1_1 0
x_4_8_1_2 0
x_4_8_1_3 0
x_4_8_1_4 0
x_4_8_1_5 0
x_4_9_0_0 1.0000000000000160e+00
x_4_9_0_1 0
x_4_9_0_2 0
x_4_9_0_3 0
x_4_9_0_4 0
x_4_9_0_5 0
x_4_9_1_0 0
x_4_9_1_1 0
x_4_9_1_2 0
x_4_9_1_3 0
x_4_9_1_4 0
x_4_9_1_5 0
x_4_10_0_0 0
x_4_10_0_1 0
x_4_10_0_2 0
x_4_10_0_3 0
x_4_10_0_4 0
x_4_10_0_5 0
x_4_10_1_0 0
x_4_10_1_1 0
x_4_10_1_2 0
x_4_10_1_3 0
x_4_10_1_4 0
x_4_10_1_5 0
x_5_6_0_0 0
x_5_6_0_1 0
x_5_6_0_2 1
x_5_6_0_3 0
x_5_6_0_4 1.0000000000000002e+00
x_5_6_0_5 0
x_5_6_1_0 0
x_5_6_1_1 0
x_5_6_1_2 0
x_5_6_1_3 0
x_5_6_1_4 0
x_5_6_1_5 0
x_5_7_0_0 0
x_5_7_0_1 0
x_5_7_0_2 0
x_5_7_0_3 1
x_5_7_0_4 0
x_5_7_0_5 0
x_5_7_1_0 0
x_5_7_1_1 0
x_5_7_1_2 0
x_5_7_1_3 0
x_5_7_1_4 0
x_5_7_1_5 0
x_5_8_0_0 0
x_5_8_0_1 0
x_5_8_0_2 0
x_5_8_0_3 0
x_5_8_0_4 0
x_5_8_0_5 0
x_5_8_1_0 0
x_5_8_1_1 0
x_5_8_1_2 0
x_5_8_1_3 0
x_5_8_1_4 0
x_5_8_1_5 0
x_5_9_0_0 0
x_5_9_0_1 0
x_5_9_0_2 0
x_5_9_0_3 0
x_5_9_0_4 0
x_5_9_0_5 0
x_5_9_1_0 0
x_5_9_1_1 0
x_5_9_1_2 0
x_5_9_1_3 0
x_5_9_1_4 0
x_5_9_1_5 0
x_5_10_0_0 0
x_5_10_0_1 0
x_5_10_0_2 0
x_5_10_0_3 0
x_5_10_0_4 0
x_5_10_0_5 0
x_5_10_1_0 0
x_5_10_1_1 0
x_5_10_1_2 0
x_5_10_1_3 0
x_5_10_1_4 0
x_5_10_1_5 0
x_6_7_0_0 0
x_6_7_0_1 0
x_6_7_0_2 0
x_6_7_0_3 0
x_6_7_0_4 0
x_6_7_0_5 0
x_6_7_1_0 0
x_6_7_1_1 0
x_6_7_1_2 0
x_6_7_1_3 0
x_6_7_1_4 0
x_6_7_1_5 0
x_6_8_0_0 0
x_6_8_0_1 0
x_6_8_0_2 0
x_6_8_0_3 0
x_6_8_0_4 0
x_6_8_0_5 0
x_6_8_1_0 0
x_6_8_1_1 0
x_6_8_1_2 0
x_6_8_1_3 0
x_6_8_1_4 0
x_6_8_1_5 0
x_6_9_0_0 0
x_6_9_0_1 0
x_6_9_0_2 0
x_6_9_0_3 0
x_6_9_0_4 0
x_6_9_0_5 0
x_6_9_1_0 0
x_6_9_1_1 0
x_6_9_1_2 0
x_6_9_1_3 0
x_6_9_1_4 0
x_6_9_1_5 0
x_6_10_0_0 0
x_6_10_0_1 0
x_6_10_0_2 0
x_6_10_0_3 0
x_6_10_0_4 0
x_6_10_0_5 0
x_6_10_1_0 0
x_6_10_1_1 0
x_6_10_1_2 0
x_6_10_1_3 0
x_6_10_1_4 0
x_6_10_1_5 0
x_7_8_0_0 0
x_7_8_0_1 1
x_7_8_0_2 0
x_7_8_0_3 1
x_7_8_0_4 0
x_7_8_0_5 0
x_7_8_1_0 0
x_7_8_1_1 0
x_7_8_1_2 0
x_7_8_1_3 0
x_7_8_1_4 0
x_7_8_1_5 0
x_7_9_0_0 0
x_7_9_0_1 0
x_7_9_0_2 0
x_7_9_0_3 0
x_7_9_0_4 0
x_7_9_0_5 0
x_7_9_1_0 0
x_7_9_1_1 0
x_7_9_1_2 0
x_7_9_1_3 0
x_7_9_1_4 0
x_7_9_1_5 0
x_7_10_0_0 0
x_7_10_0_1 0
x_7_10_0_2 0
x_7_10_0_3 0
x_7_10_0_4 0
x_7_10_0_5 0
x_7_10_1_0 0
x_7_10_1_1 0
x_7_10_1_2 0
x_7_10_1_3 0
x_7_10_1_4 0
x_7_10_1_5 0
x_8_9_0_0 0
x_8_9_0_1 0
x_8_9_0_2 0
x_8_9_0_3 0
x_8_9_0_4 0
x_8_9_0_5 0
x_8_9_1_0 0
x_8_9_1_1 0
x_8_9_1_2 0
x_8_9_1_3 0
x_8_9_1_4 0
x_8_9_1_5 0
x_8_10_0_0 0
x_8_10_0_1 0
x_8_10_0_2 0
x_8_10_0_3 0
x_8_10_0_4 0
x_8_10_0_5 0
x_8_10_1_0 0
x_8_10_1_1 0
x_8_10_1_2 0
x_8_10_1_3 0
x_8_10_1_4 0
x_8_10_1_5 0
x_9_10_0_0 1.0000000000000160e+00
x_9_10_0_1 0
x_9_10_0_2 0
x_9_10_0_3 0
x_9_10_0_4 0
x_9_10_0_5 0
x_9_10_1_0 0
x_9_10_1_1 0
x_9_10_1_2 0
x_9_10_1_3 0.999999999999887
x_9_10_1_4 0
x_9_10_1_5 0
